<instance format="XCSP3" type="CSP">
  <variables>
    <array id="box" size="[43]"> 1..3 </array>
  </variables>
  <constraints>
    <group>
      <intension> or(ne(%0,%1),ne(%0,%2),ne(%1,%2)) </intension>
      <args> box[0..2] </args>
      <args> box[0] box[2..3] </args>
      <args> box[0] box[3..4] </args>
      <args> box[0] box[4..5] </args>
      <args> box[0] box[5..6] </args>
      <args> box[0] box[6..7] </args>
      <args> box[0] box[7..8] </args>
      <args> box[0] box[8..9] </args>
      <args> box[0] box[9..10] </args>
      <args> box[0] box[10..11] </args>
      <args> box[0] box[11..12] </args>
      <args> box[0] box[12..13] </args>
      <args> box[0] box[13..14] </args>
      <args> box[0] box[14..15] </args>
      <args> box[0] box[15..16] </args>
      <args> box[0] box[16..17] </args>
      <args> box[0] box[17..18] </args>
      <args> box[0] box[18..19] </args>
      <args> box[0] box[19..20] </args>
      <args> box[0] box[20..21] </args>
      <args> box[0] box[21..22] </args>
      <args> box[0] box[22..23] </args>
      <args> box[0] box[23..24] </args>
      <args> box[0] box[24..25] </args>
      <args> box[0] box[25..26] </args>
      <args> box[0] box[26..27] </args>
      <args> box[0] box[27..28] </args>
      <args> box[0] box[28..29] </args>
      <args> box[0] box[29..30] </args>
      <args> box[0] box[30..31] </args>
      <args> box[0] box[31..32] </args>
      <args> box[0] box[32..33] </args>
      <args> box[0] box[33..34] </args>
      <args> box[0] box[34..35] </args>
      <args> box[0] box[35..36] </args>
      <args> box[0] box[36..37] </args>
      <args> box[0] box[37..38] </args>
      <args> box[0] box[38..39] </args>
      <args> box[0] box[39..40] </args>
      <args> box[0] box[40..41] </args>
      <args> box[0] box[41..42] </args>
      <args> box[1..2] box[4] </args>
      <args> box[1] box[3] box[5] </args>
      <args> box[1] box[4] box[6] </args>
      <args> box[1] box[5] box[7] </args>
      <args> box[1] box[6] box[8] </args>
      <args> box[1] box[7] box[9] </args>
      <args> box[1] box[8] box[10] </args>
      <args> box[1] box[9] box[11] </args>
      <args> box[1] box[10] box[12] </args>
      <args> box[1] box[11] box[13] </args>
      <args> box[1] box[12] box[14] </args>
      <args> box[1] box[13] box[15] </args>
      <args> box[1] box[14] box[16] </args>
      <args> box[1] box[15] box[17] </args>
      <args> box[1] box[16] box[18] </args>
      <args> box[1] box[17] box[19] </args>
      <args> box[1] box[18] box[20] </args>
      <args> box[1] box[19] box[21] </args>
      <args> box[1] box[20] box[22] </args>
      <args> box[1] box[21] box[23] </args>
      <args> box[1] box[22] box[24] </args>
      <args> box[1] box[23] box[25] </args>
      <args> box[1] box[24] box[26] </args>
      <args> box[1] box[25] box[27] </args>
      <args> box[1] box[26] box[28] </args>
      <args> box[1] box[27] box[29] </args>
      <args> box[1] box[28] box[30] </args>
      <args> box[1] box[29] box[31] </args>
      <args> box[1] box[30] box[32] </args>
      <args> box[1] box[31] box[33] </args>
      <args> box[1] box[32] box[34] </args>
      <args> box[1] box[33] box[35] </args>
      <args> box[1] box[34] box[36] </args>
      <args> box[1] box[35] box[37] </args>
      <args> box[1] box[36] box[38] </args>
      <args> box[1] box[37] box[39] </args>
      <args> box[1] box[38] box[40] </args>
      <args> box[1] box[39] box[41] </args>
      <args> box[1] box[40] box[42] </args>
      <args> box[2..3] box[6] </args>
      <args> box[2] box[4] box[7] </args>
      <args> box[2] box[5] box[8] </args>
      <args> box[2] box[6] box[9] </args>
      <args> box[2] box[7] box[10] </args>
      <args> box[2] box[8] box[11] </args>
      <args> box[2] box[9] box[12] </args>
      <args> box[2] box[10] box[13] </args>
      <args> box[2] box[11] box[14] </args>
      <args> box[2] box[12] box[15] </args>
      <args> box[2] box[13] box[16] </args>
      <args> box[2] box[14] box[17] </args>
      <args> box[2] box[15] box[18] </args>
      <args> box[2] box[16] box[19] </args>
      <args> box[2] box[17] box[20] </args>
      <args> box[2] box[18] box[21] </args>
      <args> box[2] box[19] box[22] </args>
      <args> box[2] box[20] box[23] </args>
      <args> box[2] box[21] box[24] </args>
      <args> box[2] box[22] box[25] </args>
      <args> box[2] box[23] box[26] </args>
      <args> box[2] box[24] box[27] </args>
      <args> box[2] box[25] box[28] </args>
      <args> box[2] box[26] box[29] </args>
      <args> box[2] box[27] box[30] </args>
      <args> box[2] box[28] box[31] </args>
      <args> box[2] box[29] box[32] </args>
      <args> box[2] box[30] box[33] </args>
      <args> box[2] box[31] box[34] </args>
      <args> box[2] box[32] box[35] </args>
      <args> box[2] box[33] box[36] </args>
      <args> box[2] box[34] box[37] </args>
      <args> box[2] box[35] box[38] </args>
      <args> box[2] box[36] box[39] </args>
      <args> box[2] box[37] box[40] </args>
      <args> box[2] box[38] box[41] </args>
      <args> box[2] box[39] box[42] </args>
      <args> box[3..4] box[8] </args>
      <args> box[3] box[5] box[9] </args>
      <args> box[3] box[6] box[10] </args>
      <args> box[3] box[7] box[11] </args>
      <args> box[3] box[8] box[12] </args>
      <args> box[3] box[9] box[13] </args>
      <args> box[3] box[10] box[14] </args>
      <args> box[3] box[11] box[15] </args>
      <args> box[3] box[12] box[16] </args>
      <args> box[3] box[13] box[17] </args>
      <args> box[3] box[14] box[18] </args>
      <args> box[3] box[15] box[19] </args>
      <args> box[3] box[16] box[20] </args>
      <args> box[3] box[17] box[21] </args>
      <args> box[3] box[18] box[22] </args>
      <args> box[3] box[19] box[23] </args>
      <args> box[3] box[20] box[24] </args>
      <args> box[3] box[21] box[25] </args>
      <args> box[3] box[22] box[26] </args>
      <args> box[3] box[23] box[27] </args>
      <args> box[3] box[24] box[28] </args>
      <args> box[3] box[25] box[29] </args>
      <args> box[3] box[26] box[30] </args>
      <args> box[3] box[27] box[31] </args>
      <args> box[3] box[28] box[32] </args>
      <args> box[3] box[29] box[33] </args>
      <args> box[3] box[30] box[34] </args>
      <args> box[3] box[31] box[35] </args>
      <args> box[3] box[32] box[36] </args>
      <args> box[3] box[33] box[37] </args>
      <args> box[3] box[34] box[38] </args>
      <args> box[3] box[35] box[39] </args>
      <args> box[3] box[36] box[40] </args>
      <args> box[3] box[37] box[41] </args>
      <args> box[3] box[38] box[42] </args>
      <args> box[4..5] box[10] </args>
      <args> box[4] box[6] box[11] </args>
      <args> box[4] box[7] box[12] </args>
      <args> box[4] box[8] box[13] </args>
      <args> box[4] box[9] box[14] </args>
      <args> box[4] box[10] box[15] </args>
      <args> box[4] box[11] box[16] </args>
      <args> box[4] box[12] box[17] </args>
      <args> box[4] box[13] box[18] </args>
      <args> box[4] box[14] box[19] </args>
      <args> box[4] box[15] box[20] </args>
      <args> box[4] box[16] box[21] </args>
      <args> box[4] box[17] box[22] </args>
      <args> box[4] box[18] box[23] </args>
      <args> box[4] box[19] box[24] </args>
      <args> box[4] box[20] box[25] </args>
      <args> box[4] box[21] box[26] </args>
      <args> box[4] box[22] box[27] </args>
      <args> box[4] box[23] box[28] </args>
      <args> box[4] box[24] box[29] </args>
      <args> box[4] box[25] box[30] </args>
      <args> box[4] box[26] box[31] </args>
      <args> box[4] box[27] box[32] </args>
      <args> box[4] box[28] box[33] </args>
      <args> box[4] box[29] box[34] </args>
      <args> box[4] box[30] box[35] </args>
      <args> box[4] box[31] box[36] </args>
      <args> box[4] box[32] box[37] </args>
      <args> box[4] box[33] box[38] </args>
      <args> box[4] box[34] box[39] </args>
      <args> box[4] box[35] box[40] </args>
      <args> box[4] box[36] box[41] </args>
      <args> box[4] box[37] box[42] </args>
      <args> box[5..6] box[12] </args>
      <args> box[5] box[7] box[13] </args>
      <args> box[5] box[8] box[14] </args>
      <args> box[5] box[9] box[15] </args>
      <args> box[5] box[10] box[16] </args>
      <args> box[5] box[11] box[17] </args>
      <args> box[5] box[12] box[18] </args>
      <args> box[5] box[13] box[19] </args>
      <args> box[5] box[14] box[20] </args>
      <args> box[5] box[15] box[21] </args>
      <args> box[5] box[16] box[22] </args>
      <args> box[5] box[17] box[23] </args>
      <args> box[5] box[18] box[24] </args>
      <args> box[5] box[19] box[25] </args>
      <args> box[5] box[20] box[26] </args>
      <args> box[5] box[21] box[27] </args>
      <args> box[5] box[22] box[28] </args>
      <args> box[5] box[23] box[29] </args>
      <args> box[5] box[24] box[30] </args>
      <args> box[5] box[25] box[31] </args>
      <args> box[5] box[26] box[32] </args>
      <args> box[5] box[27] box[33] </args>
      <args> box[5] box[28] box[34] </args>
      <args> box[5] box[29] box[35] </args>
      <args> box[5] box[30] box[36] </args>
      <args> box[5] box[31] box[37] </args>
      <args> box[5] box[32] box[38] </args>
      <args> box[5] box[33] box[39] </args>
      <args> box[5] box[34] box[40] </args>
      <args> box[5] box[35] box[41] </args>
      <args> box[5] box[36] box[42] </args>
      <args> box[6..7] box[14] </args>
      <args> box[6] box[8] box[15] </args>
      <args> box[6] box[9] box[16] </args>
      <args> box[6] box[10] box[17] </args>
      <args> box[6] box[11] box[18] </args>
      <args> box[6] box[12] box[19] </args>
      <args> box[6] box[13] box[20] </args>
      <args> box[6] box[14] box[21] </args>
      <args> box[6] box[15] box[22] </args>
      <args> box[6] box[16] box[23] </args>
      <args> box[6] box[17] box[24] </args>
      <args> box[6] box[18] box[25] </args>
      <args> box[6] box[19] box[26] </args>
      <args> box[6] box[20] box[27] </args>
      <args> box[6] box[21] box[28] </args>
      <args> box[6] box[22] box[29] </args>
      <args> box[6] box[23] box[30] </args>
      <args> box[6] box[24] box[31] </args>
      <args> box[6] box[25] box[32] </args>
      <args> box[6] box[26] box[33] </args>
      <args> box[6] box[27] box[34] </args>
      <args> box[6] box[28] box[35] </args>
      <args> box[6] box[29] box[36] </args>
      <args> box[6] box[30] box[37] </args>
      <args> box[6] box[31] box[38] </args>
      <args> box[6] box[32] box[39] </args>
      <args> box[6] box[33] box[40] </args>
      <args> box[6] box[34] box[41] </args>
      <args> box[6] box[35] box[42] </args>
      <args> box[7..8] box[16] </args>
      <args> box[7] box[9] box[17] </args>
      <args> box[7] box[10] box[18] </args>
      <args> box[7] box[11] box[19] </args>
      <args> box[7] box[12] box[20] </args>
      <args> box[7] box[13] box[21] </args>
      <args> box[7] box[14] box[22] </args>
      <args> box[7] box[15] box[23] </args>
      <args> box[7] box[16] box[24] </args>
      <args> box[7] box[17] box[25] </args>
      <args> box[7] box[18] box[26] </args>
      <args> box[7] box[19] box[27] </args>
      <args> box[7] box[20] box[28] </args>
      <args> box[7] box[21] box[29] </args>
      <args> box[7] box[22] box[30] </args>
      <args> box[7] box[23] box[31] </args>
      <args> box[7] box[24] box[32] </args>
      <args> box[7] box[25] box[33] </args>
      <args> box[7] box[26] box[34] </args>
      <args> box[7] box[27] box[35] </args>
      <args> box[7] box[28] box[36] </args>
      <args> box[7] box[29] box[37] </args>
      <args> box[7] box[30] box[38] </args>
      <args> box[7] box[31] box[39] </args>
      <args> box[7] box[32] box[40] </args>
      <args> box[7] box[33] box[41] </args>
      <args> box[7] box[34] box[42] </args>
      <args> box[8..9] box[18] </args>
      <args> box[8] box[10] box[19] </args>
      <args> box[8] box[11] box[20] </args>
      <args> box[8] box[12] box[21] </args>
      <args> box[8] box[13] box[22] </args>
      <args> box[8] box[14] box[23] </args>
      <args> box[8] box[15] box[24] </args>
      <args> box[8] box[16] box[25] </args>
      <args> box[8] box[17] box[26] </args>
      <args> box[8] box[18] box[27] </args>
      <args> box[8] box[19] box[28] </args>
      <args> box[8] box[20] box[29] </args>
      <args> box[8] box[21] box[30] </args>
      <args> box[8] box[22] box[31] </args>
      <args> box[8] box[23] box[32] </args>
      <args> box[8] box[24] box[33] </args>
      <args> box[8] box[25] box[34] </args>
      <args> box[8] box[26] box[35] </args>
      <args> box[8] box[27] box[36] </args>
      <args> box[8] box[28] box[37] </args>
      <args> box[8] box[29] box[38] </args>
      <args> box[8] box[30] box[39] </args>
      <args> box[8] box[31] box[40] </args>
      <args> box[8] box[32] box[41] </args>
      <args> box[8] box[33] box[42] </args>
      <args> box[9..10] box[20] </args>
      <args> box[9] box[11] box[21] </args>
      <args> box[9] box[12] box[22] </args>
      <args> box[9] box[13] box[23] </args>
      <args> box[9] box[14] box[24] </args>
      <args> box[9] box[15] box[25] </args>
      <args> box[9] box[16] box[26] </args>
      <args> box[9] box[17] box[27] </args>
      <args> box[9] box[18] box[28] </args>
      <args> box[9] box[19] box[29] </args>
      <args> box[9] box[20] box[30] </args>
      <args> box[9] box[21] box[31] </args>
      <args> box[9] box[22] box[32] </args>
      <args> box[9] box[23] box[33] </args>
      <args> box[9] box[24] box[34] </args>
      <args> box[9] box[25] box[35] </args>
      <args> box[9] box[26] box[36] </args>
      <args> box[9] box[27] box[37] </args>
      <args> box[9] box[28] box[38] </args>
      <args> box[9] box[29] box[39] </args>
      <args> box[9] box[30] box[40] </args>
      <args> box[9] box[31] box[41] </args>
      <args> box[9] box[32] box[42] </args>
      <args> box[10..11] box[22] </args>
      <args> box[10] box[12] box[23] </args>
      <args> box[10] box[13] box[24] </args>
      <args> box[10] box[14] box[25] </args>
      <args> box[10] box[15] box[26] </args>
      <args> box[10] box[16] box[27] </args>
      <args> box[10] box[17] box[28] </args>
      <args> box[10] box[18] box[29] </args>
      <args> box[10] box[19] box[30] </args>
      <args> box[10] box[20] box[31] </args>
      <args> box[10] box[21] box[32] </args>
      <args> box[10] box[22] box[33] </args>
      <args> box[10] box[23] box[34] </args>
      <args> box[10] box[24] box[35] </args>
      <args> box[10] box[25] box[36] </args>
      <args> box[10] box[26] box[37] </args>
      <args> box[10] box[27] box[38] </args>
      <args> box[10] box[28] box[39] </args>
      <args> box[10] box[29] box[40] </args>
      <args> box[10] box[30] box[41] </args>
      <args> box[10] box[31] box[42] </args>
      <args> box[11..12] box[24] </args>
      <args> box[11] box[13] box[25] </args>
      <args> box[11] box[14] box[26] </args>
      <args> box[11] box[15] box[27] </args>
      <args> box[11] box[16] box[28] </args>
      <args> box[11] box[17] box[29] </args>
      <args> box[11] box[18] box[30] </args>
      <args> box[11] box[19] box[31] </args>
      <args> box[11] box[20] box[32] </args>
      <args> box[11] box[21] box[33] </args>
      <args> box[11] box[22] box[34] </args>
      <args> box[11] box[23] box[35] </args>
      <args> box[11] box[24] box[36] </args>
      <args> box[11] box[25] box[37] </args>
      <args> box[11] box[26] box[38] </args>
      <args> box[11] box[27] box[39] </args>
      <args> box[11] box[28] box[40] </args>
      <args> box[11] box[29] box[41] </args>
      <args> box[11] box[30] box[42] </args>
      <args> box[12..13] box[26] </args>
      <args> box[12] box[14] box[27] </args>
      <args> box[12] box[15] box[28] </args>
      <args> box[12] box[16] box[29] </args>
      <args> box[12] box[17] box[30] </args>
      <args> box[12] box[18] box[31] </args>
      <args> box[12] box[19] box[32] </args>
      <args> box[12] box[20] box[33] </args>
      <args> box[12] box[21] box[34] </args>
      <args> box[12] box[22] box[35] </args>
      <args> box[12] box[23] box[36] </args>
      <args> box[12] box[24] box[37] </args>
      <args> box[12] box[25] box[38] </args>
      <args> box[12] box[26] box[39] </args>
      <args> box[12] box[27] box[40] </args>
      <args> box[12] box[28] box[41] </args>
      <args> box[12] box[29] box[42] </args>
      <args> box[13..14] box[28] </args>
      <args> box[13] box[15] box[29] </args>
      <args> box[13] box[16] box[30] </args>
      <args> box[13] box[17] box[31] </args>
      <args> box[13] box[18] box[32] </args>
      <args> box[13] box[19] box[33] </args>
      <args> box[13] box[20] box[34] </args>
      <args> box[13] box[21] box[35] </args>
      <args> box[13] box[22] box[36] </args>
      <args> box[13] box[23] box[37] </args>
      <args> box[13] box[24] box[38] </args>
      <args> box[13] box[25] box[39] </args>
      <args> box[13] box[26] box[40] </args>
      <args> box[13] box[27] box[41] </args>
      <args> box[13] box[28] box[42] </args>
      <args> box[14..15] box[30] </args>
      <args> box[14] box[16] box[31] </args>
      <args> box[14] box[17] box[32] </args>
      <args> box[14] box[18] box[33] </args>
      <args> box[14] box[19] box[34] </args>
      <args> box[14] box[20] box[35] </args>
      <args> box[14] box[21] box[36] </args>
      <args> box[14] box[22] box[37] </args>
      <args> box[14] box[23] box[38] </args>
      <args> box[14] box[24] box[39] </args>
      <args> box[14] box[25] box[40] </args>
      <args> box[14] box[26] box[41] </args>
      <args> box[14] box[27] box[42] </args>
      <args> box[15..16] box[32] </args>
      <args> box[15] box[17] box[33] </args>
      <args> box[15] box[18] box[34] </args>
      <args> box[15] box[19] box[35] </args>
      <args> box[15] box[20] box[36] </args>
      <args> box[15] box[21] box[37] </args>
      <args> box[15] box[22] box[38] </args>
      <args> box[15] box[23] box[39] </args>
      <args> box[15] box[24] box[40] </args>
      <args> box[15] box[25] box[41] </args>
      <args> box[15] box[26] box[42] </args>
      <args> box[16..17] box[34] </args>
      <args> box[16] box[18] box[35] </args>
      <args> box[16] box[19] box[36] </args>
      <args> box[16] box[20] box[37] </args>
      <args> box[16] box[21] box[38] </args>
      <args> box[16] box[22] box[39] </args>
      <args> box[16] box[23] box[40] </args>
      <args> box[16] box[24] box[41] </args>
      <args> box[16] box[25] box[42] </args>
      <args> box[17..18] box[36] </args>
      <args> box[17] box[19] box[37] </args>
      <args> box[17] box[20] box[38] </args>
      <args> box[17] box[21] box[39] </args>
      <args> box[17] box[22] box[40] </args>
      <args> box[17] box[23] box[41] </args>
      <args> box[17] box[24] box[42] </args>
      <args> box[18..19] box[38] </args>
      <args> box[18] box[20] box[39] </args>
      <args> box[18] box[21] box[40] </args>
      <args> box[18] box[22] box[41] </args>
      <args> box[18] box[23] box[42] </args>
      <args> box[19..20] box[40] </args>
      <args> box[19] box[21] box[41] </args>
      <args> box[19] box[22] box[42] </args>
      <args> box[20..21] box[42] </args>
    </group>
  </constraints>
</instance>
